41
75
52	2
49	5
48	2
47	3
46	4
45	4
43	6
42	1
41	1
40	2
39	2
38	1
37	1
35	1
33	1
32	3
31	3
30	5
29	2
28	2
27	2
26	2
25	1
24	3
23	1
22	1
21	3
20	4
19	4
18	1
17	5
16	3
15	2
14	1
13	1
12	2
11	3
10	3
9	2
8	3
7	2
